language Essence 1.3

$ formula:  (7*n^2-3*n-2)/2 * (-1)^(n-1) + 3*Sum_{i=2..n} 2^(i+1) * (2*i-4)!/(i!*(i-2)!) * binomial(n-i+2, 2) * (-1)^(n-i)
$ result:  103

letting length be 5
letting avoiding be {sequence(1,3,4,2)}
